************************************************************************
file with basedata            : cn330_.bas
initial value random generator: 1544396153
************************************************************************
projects                      :  1
jobs (incl. supersource/sink ):  18
horizon                       :  129
RESOURCES
  - renewable                 :  2   R
  - nonrenewable              :  3   N
  - doubly constrained        :  0   D
************************************************************************
PROJECT INFORMATION:
pronr.  #jobs rel.date duedate tardcost  MPM-Time
    1     16      0       30       12       30
************************************************************************
PRECEDENCE RELATIONS:
jobnr.    #modes  #successors   successors
   1        1          3           2   3   4
   2        3          3           9  11  12
   3        3          3           5   8  17
   4        3          3          13  14  17
   5        3          2           6  12
   6        3          1           7
   7        3          2           9  10
   8        3          3           9  10  12
   9        3          2          14  16
  10        3          2          11  16
  11        3          2          13  14
  12        3          2          15  16
  13        3          1          15
  14        3          1          15
  15        3          1          18
  16        3          1          18
  17        3          1          18
  18        1          0        
************************************************************************
REQUESTS/DURATIONS:
jobnr. mode duration  R 1  R 2  N 1  N 2  N 3
------------------------------------------------------------------------
  1      1     0       0    0    0    0    0
  2      1     2       6    5    8    5    0
         2     8       6    5    8    0    0
         3    10       5    3    7    0    3
  3      1     5       8    5    5    3    9
         2     9       2    5    5    0    0
         3     9       3    5    0    3    0
  4      1     2       8    5    7    8    0
         2     9       8    4    0    0    9
         3     9       7    5    0    0    9
  5      1     5       6    6    0    8    7
         2     9       5    6    0    0    2
         3    10       4    1    0    6    0
  6      1     1       9    9    0    9    3
         2     1       8    9    9    9    0
         3     5       8    9    0    9    0
  7      1     4       9    3   10    0    0
         2     6       9    2    0    0    4
         3     8       9    2    8    0    2
  8      1     4       8    7    0    0    3
         2     4       8    6    4    0    3
         3     8       7    3    0    0    1
  9      1     2       7    7    6    0    8
         2     5       5    6    0    5    6
         3     6       3    6    4    0    0
 10      1     2      10    2    0    9    0
         2     6       5    2    0    0   10
         3     7       3    2    0    8    9
 11      1     1       9    8    6    0    6
         2     4       9    5    3    0    3
         3     5       9    1    0    8    3
 12      1     1       4    8    0    0    9
         2     6       3    8    0    7    0
         3    10       3    8    0    6    0
 13      1     1       4    6    6    0    0
         2     6       3    5    5    8    3
         3     7       3    2    4    8    0
 14      1     7       8    3    7    0    6
         2     7       9    5    0    0    6
         3     8       8    1    7    0    5
 15      1     5       6    6    0    0    5
         2     7       6    6    0    0    4
         3     8       3    4    0    7    0
 16      1     1       8    9    0    8   10
         2     2       6    8    0    7    0
         3    10       4    7    0    4   10
 17      1     1       7    6    8    9    0
         2     6       3    5    0    7    3
         3     9       3    4    0    6    0
 18      1     0       0    0    0    0    0
************************************************************************
RESOURCEAVAILABILITIES:
  R 1  R 2  N 1  N 2  N 3
   16   14   76   94   98
************************************************************************
